\ENCODING=ISO-8859-1
\Problem name: 
\ x* =  [0.0, 0.0, 0.0, 1.0, 0.0, 0.0, 0.0, 0.0, 1.0, 1.0]
\ val = 187

Maximize
 obj: 45 x_0 + 39 x_1 + 52 x_2 + 85 x_3 + 23 x_4 + 3 x_5 + 39 x_6 + 36 x_7
      + 48 x_8 + 54 x_9
Subject To
 C0: x_0 <= 2
 C1: x_0 + x_1 <= 2
 C2: x_0 + x_1 + x_2 <= 1
 C3: x_0 + x_1 + x_2 + x_3 <= 2
 C4: x_0 + x_1 + x_2 + x_3 + x_4 <= 1
 C5: x_0 + x_1 + x_2 + x_3 + x_4 + x_5 <= 2
 C6: x_0 + x_1 + x_2 + x_3 + x_4 + x_5 + x_6 <= 4
 C7: x_0 + x_1 + x_2 + x_3 + x_4 + x_5 + x_6 + x_7 <= 1
 C8: x_0 + x_1 + x_2 + x_3 + x_4 + x_5 + x_6 + x_7 + x_8 <= 2
 C9: x_0 + x_1 + x_2 + x_3 + x_4 + x_5 + x_6 + x_7 + x_8 + x_9 <= 9
Bounds
 0 <= x_0 <= 1
 0 <= x_1 <= 1
 0 <= x_2 <= 1
 0 <= x_3 <= 1
 0 <= x_4 <= 1
 0 <= x_5 <= 1
 0 <= x_6 <= 1
 0 <= x_7 <= 1
 0 <= x_8 <= 1
 0 <= x_9 <= 1
End
